NAME : in_house_9_12
TYPE : TSP
DIMENSION : 9
EDGE_WEIGHT_TYPE : EXPLICIT
EDGE_WEIGHT_FORMAT : UPPER_ROW
COMMENT : INVERSION_SHIFT=4
EDGE_WEIGHT_SECTION
78
29
45
31
58
38
49
35
67
67
59
60
79
46
12
21
57
37
61
53
68
60
42
37
81
41
24
19
34
8
31
27
69
29
10
39
